StudentsNr = 10;
InstructorsNr = 24;
DaysNr = 2;
SlotsPerDay = 10;
AvailabilitySlotsLenght = 5;
RoomNr = 2;
ProgrammNr = 2;
DegreeNr = 3;
RolesNr = 1;
CoursesNr = 8;
InstructorsProgramm = [{2}, {1}, {1}, {1}, {1, 2}, {1}, {2}, {1}, {1, 2}, {1, 2}, {1}, {2}, {1, 2}, {2}, {1}, {1, 2}, {1, 2}, {1, 2}, {1}, {2}, {1}, {1}, {2}, {1}];
InstructorRolesPerProgramm = [|{2, 3, 5, 8, 9, 11, 13, 15, 16, 17, 18, 19, 21, 22}|{5, 7, 9, 13, 16, 17, 18, 20, 23}|];
InstructorsAvailability = [|1, 1, 1, 1, |1, 1, 1, 1, |1, 0, 0, 1, |0, 0, 0, 1, |0, 1, 1, 1, |1, 1, 1, 1, |1, 1, 1, 1, |1, 1, 1, 1, |0, 0, 1, 1, |0, 1, 1, 1, |1, 1, 0, 1, |0, 0, 0, 0, |0, 1, 1, 0, |1, 1, 1, 1, |1, 1, 1, 1, |0, 1, 1, 0, |0, 0, 1, 1, |0, 0, 0, 0, |0, 0, 0, 1, |0, 1, 1, 0, |1, 1, 1, 1, |0, 0, 0, 0, |0, 1, 1, 1, |1, 1, 1, 1|];
StudentsProgramm = [2, 2, 1, 1, 1, 1, 2, 2, 1, 1];
StudentsDegree = [3, 3, 3, 2, 2, 3, 3, 2, 1, 1];
StudentsSupervisorId = [23, 1, 13, 15, 19, 22, 1, 23, 18, 5];
StudentsCourseIds = [{1, 2, 3, 4, 6}, {1, 2, 3, 5, 8}, {2, 4, 5, 7, 8}, {4}, {1}, {1, 2, 4, 7, 8}, {1, 4, 6, 7, 8}, {7}, {1, 2, 3, 7, 8}, {1, 3, 4, 5, 7}];
StudentsAvailability = [|0, 1, 1, 1, |0, 0, 0, 1, |1, 1, 1, 1, |0, 0, 0, 1, |0, 0, 0, 0, |0, 0, 0, 1, |1, 1, 0, 0, |1, 1, 1, 1, |1, 1, 1, 1, |0, 0, 0, 1|];
TheoryticalMinCard = [0, 0, 0, 0, 1, 1, 0, 0, 1, 1];
CoursesInstructorIds = [{20}, {1, 2, 3, 4, 5, 6, 7, 8, 9, 11, 12, 13, 15, 16, 17, 20, 22, 23}, {2, 4, 6, 7, 8, 9, 10, 12, 15, 16, 17, 19, 23, 24}, {1, 3, 4, 6, 8, 9, 10, 11, 13, 15, 17, 19, 20, 21, 22, 23}, {1, 2, 4, 5, 7, 8, 11, 13, 16, 17, 19, 21, 22}, {2, 4, 6, 10, 14, 15, 17, 18, 20, 22, 23}, {2, 4, 7, 8, 10, 13, 14, 15, 19, 21, 22, 24}, {3, 4, 10, 16, 17, 22}];
RolesDemands = [1];
RolesContinuity = [];
ExamLen = [1, 1, 1, 1, 1, 1, 1, 1, 2, 2];
LunchTsMinLen = 1;
LunchStarts = [5..7, 15..17];
SupervisorAvailable = 5;
OptimalLunchLenght = [3, 1];
OptimalStartTs = [1, 0];
OptimalFinishTs = [2, 10];
MinimizeRooms = 200;
RolesSoftContinuity = [|1|3|];
SameDegreeInRoom = 20;
Mergeability = 2;
